c instancia_19  vars=15  clausulas=25  k=2
p cnf 15 25
-9 -8 0
-10 -12 0
-11 -8 0
-4 6 0
11 -9 0
-11 -8 0
-5 1 0
3 -9 0
-2 9 0
1 3 0
-8 -3 0
-13 -8 0
6 -2 0
7 -15 0
14 -9 0
-5 -7 0
3 -5 0
-12 -4 0
14 -12 0
15 -13 0
-4 -9 0
-8 -7 0
-1 -13 0
13 15 0
12 -10 0
